%chk=final_drug_opt.chk
%nproc=4
%mem=4GB
# RHF/6-31G* Opt=(Redundant) SCF=Tight

<qmtool> simtype="Geometry optimization" </qmtool>
final_drug_opt

0 1
C1 8.638999938964844 -8.539999961853027 1.4600000381469727
C2 8.348999977111816 -7.7769999504089355 0.1589999943971634
C3 10.138999938964844 -8.857999801635742 1.5490000247955322
C4 9.154000282287598 -6.4679999351501465 0.14499999582767487
C5 10.9399995803833 -7.546000003814697 1.527999997138977
C6 10.659000396728516 -6.7820000648498535 0.22200000286102295
C7 10.548999786376953 -9.722000122070313 0.3449999988079071
C8 10.265000343322754 -8.961000442504883 -0.9610000252723694
C9 8.765999794006348 -8.635000228881836 -1.0460000038146973
C10 11.10099983215332 -7.664999961853027 -0.9580000042915344
C11 11.821999549865723 -7.2270002365112305 -3.26200008392334
C12 11.621000289916992 -6.388999938964844 -4.521999835968018
O13 12.640000343322754 -8.118000030517578 -3.263000011444092
N14 10.90999984741211 -5.13100004196167 -4.291999816894531
C15 9.96500015258789 -4.934000015258789 -5.383999824523926
C16 9.493000030517578 -6.3460001945495605 -5.697999954223633
C17 10.784000396728516 -7.160999774932861 -5.574999809265137
C18 11.795999526977539 -4.011000156402588 -4.015999794006348
C19 11.081000328063965 -2.740000009536743 -3.566999912261963
C20 10.267999649047852 -2.859999895095825 -2.2739999294281006
C21 10.032999992370605 -1.4040000438690186 -1.8329999446868896
C22 11.204999923706055 -0.5849999785423279 -2.437000036239624
C23 12.04699993133545 -1.590999960899353 -3.24399995803833
N24 11.029999732971191 -6.940999984741211 -2.2179999351501465
H25 8.0600004196167 -9.461000442504883 1.4889999628067017
H26 8.329999923706055 -7.947000026702881 2.319000005722046
H27 7.285999774932861 -7.550000190734863 0.09700000286102295
H28 10.345999717712402 -9.395000457763672 2.4719998836517334
H29 8.914999961853027 -5.894999980926514 -0.7490000128746033
H30 8.871999740600586 -5.8420000076293945 0.9900000095367432
H31 12.003999710083008 -7.754000186920166 1.6169999837875366
H32 10.666999816894531 -6.927000045776367 2.380000114440918
H33 11.232999801635742 -5.859000205993652 0.20900000631809235
H34 9.998000144958496 -10.65999984741211 0.3529999852180481
H35 11.604999542236328 -9.97700023651123 0.4059999883174896
H36 10.565999984741211 -9.5649995803833 -1.8109999895095825
H37 8.190999984741211 -9.5600004196167 -1.062999963760376
H38 8.543999671936035 -8.11299991607666 -1.9730000495910645
H39 12.142000198364258 -7.935999870300293 -0.824999988079071
H40 12.623000144958496 -6.2170000076293945 -4.9070000648498535
H41 9.156999588012695 -4.276000022888184 -5.085000038146973
H42 10.449000358581543 -4.491000175476074 -6.261000156402588
H43 8.763999938964844 -6.664000034332275 -4.958000183105469
H44 9.032999992370605 -6.428999900817871 -6.677000045776367
H45 10.618000030517578 -8.192999839782715 -5.293000221252441
H46 11.314000129699707 -7.169000148773193 -6.519999980926514
H47 12.480999946594238 -4.315999984741211 -3.2300000190734863
H48 12.407999992370605 -3.7839999198913574 -4.895999908447266
H49 10.416999816894531 -2.4030001163482666 -4.361999988555908
H50 10.861000061035156 -3.388000011444092 -1.527999997138977
H51 9.343000411987305 -3.4119999408721924 -2.3989999294281006
H52 9.083999633789063 -1.0440000295639038 -2.2219998836517334
H53 9.980999946594238 -1.312999963760376 -0.753000020980835
H54 10.824999809265137 0.1979999989271164 -3.0850000381469727
H55 11.79699993133545 -0.0949999988079071 -1.6710000038146973
H56 12.864999771118164 -1.9709999561309814 -2.634000062942505
H57 12.489999771118164 -1.1490000486373901 -4.13100004196167
H58 10.425000190734863 -6.160999774932861 -2.3320000171661377

